p cnf 23 25
-1 9 22 0
23 19 23 0
-1 -2 -3 -4 -5 -6 -7 -8 -9 -10 -11 -12 -13 -14 -15 -16 -17 -18 -19 -20 -21 -22 -23 0
9 -5 17 0
17 -19 -18 0
21 18 -5 0
-4 7 16 0
20 23 17 0
18 6 22 0
23 5 -1 0
12 -1 -10 0
13 -19 -23 0
-7 -9 -19 0
-6 -1 -10 0
-16 22 18 0
18 -1 19 0
22 -12 9 0
2 -6 8 0
20 2 3 0
-21 -5 -4 0
1 2 3 4 5 6 7 8 9 10 11 12 13 14 15 16 17 18 19 20 21 22 23 0
8 7 19 0
12 8 19 0
-10 23 -12 0
-14 4 19 0
